c 5 __UCLIBC_HAS_CRYPT__
c 1 __UCLIBC_HAS_THREADS_NATIVE__
c 3 __UCLIBC_HAS_XLOCALE__
c 6 __UCLIBC_HAS_LOCALE__
c 2 __UCLIBC_HAS_CRYPT_IMPL__
c 7 __LINUXTHREADS_NEW__
c 4 __UCLIBC_HAS_THREADS__
p cnf 7 1
1 -3 -2 -4 6 -7 -5 1
